Version identifier: 12.10.0.0 | 2019-11-26 | 843d4de
CPXPARAM_WorkMem                                 16384
CPXPARAM_MIP_Limits_TreeMemory                   24576
Tried aggregator 2 times.
Aggregator did 100 substitutions.
Reduced MIP has 323 rows, 360 columns, and 1503 nonzeros.
Reduced MIP has 360 binaries, 0 generals, 0 SOSs, and 0 indicators.
Presolve time = 0,00 sec. (1,48 ticks)
Found incumbent of value 1083,000000 after 0,01 sec. (2,28 ticks)
Probing time = 0,00 sec. (0,71 ticks)
Tried aggregator 1 time.
Detecting symmetries...
MIP Presolve eliminated 69 rows and 0 columns.
MIP Presolve added 138 rows and 0 columns.
Reduced MIP has 392 rows, 360 columns, and 1572 nonzeros.
Reduced MIP has 360 binaries, 0 generals, 0 SOSs, and 0 indicators.
Presolve time = 0,00 sec. (1,86 ticks)
Probing time = 0,00 sec. (0,70 ticks)
Clique table members: 1103.
MIP emphasis: balance optimality and feasibility.
MIP search method: dynamic search.
Parallel mode: deterministic, using up to 16 threads.
Root relaxation solution time = 0,00 sec. (2,24 ticks)

        Nodes                                         Cuts/
   Node  Left     Objective  IInf  Best Integer    Best Bound    ItCnt     Gap

*     0+    0                         1083,0000        0,0000           100,00%
*     0+    0                          809,0000        0,0000           100,00%
      0     0      361,0000   360      809,0000      361,0000      157   55,38%
      0     0      364,6010   360      809,0000      Cuts: 15      199   54,93%
      0     0      366,2878   360      809,0000      Cuts: 29      226   54,72%
      0     0      368,5065   360      809,0000      Cuts: 78      293   54,45%
      0     0      369,0725   360      809,0000     Cuts: 198      317   54,38%
      0     0      369,4737   360      809,0000       Cuts: 8      376   54,33%
      0     0      369,6331   360      809,0000      Cuts: 74      412   54,31%
      0     0      370,2110   360      809,0000     Cuts: 138      451   54,24%
      0     0      370,8412   360      809,0000   ZeroHalf: 6      488   54,16%
*     0+    0                          760,0000      370,8412            51,21%
      0     0      371,0929   360      760,0000      Cuts: 37      526   47,24%
      0     0      371,4402   360      760,0000      Cuts: 14      580   47,24%
*     0+    0                          759,0000      401,0000            47,17%
      0     2      371,4402   359      759,0000      405,9000      580   46,52%
Elapsed time = 0,28 sec. (152,77 ticks, tree = 0,02 MB, solutions = 4)
   2267   747      510,6181   213      759,0000      415,1893    14714   45,30%

Performing restart 1

Repeating presolve.
Tried aggregator 1 time.
Reduced MIP has 392 rows, 360 columns, and 1572 nonzeros.
Reduced MIP has 360 binaries, 0 generals, 0 SOSs, and 0 indicators.
Presolve time = 0,00 sec. (0,95 ticks)
Tried aggregator 1 time.
Reduced MIP has 392 rows, 360 columns, and 1572 nonzeros.
Reduced MIP has 360 binaries, 0 generals, 0 SOSs, and 0 indicators.
Presolve time = 0,00 sec. (1,29 ticks)
Represolve time = 0,01 sec. (7,97 ticks)
   4974     0      374,6649   360      759,0000       Cuts: 8    85726   37,55%
   4974     0      376,7674   360      759,0000      Cuts: 12    85831   37,55%
   4974     0      377,8297   360      759,0000       Cuts: 7    85926   37,55%
   4974     0      380,2698   360      759,0000      Cuts: 13    86095   37,55%
   4974     0      380,7479   360      759,0000     Cuts: 198    86135   37,55%
   4974     2      380,7479   357      759,0000      474,0263    86135   37,55%
   6075   498      650,4324   214      759,0000      474,0263   101448   37,55%
   7755  2076      433,2626   341      759,0000      474,0263   148074   37,55%
   9128  3366      697,6108   233      759,0000      474,0263   203702   37,55%
  10819  4776      612,2314   267      759,0000      474,0263   264852   37,55%

Performing restart 2

Repeating presolve.
Tried aggregator 1 time.
Reduced MIP has 392 rows, 360 columns, and 1572 nonzeros.
Reduced MIP has 360 binaries, 0 generals, 0 SOSs, and 0 indicators.
Presolve time = 0,00 sec. (0,95 ticks)
Tried aggregator 1 time.
Reduced MIP has 392 rows, 360 columns, and 1572 nonzeros.
Reduced MIP has 360 binaries, 0 generals, 0 SOSs, and 0 indicators.
Presolve time = 0,00 sec. (1,29 ticks)
Represolve time = 0,03 sec. (23,55 ticks)
  11523     0      381,3548   357      759,0000       Cuts: 9   296797   37,55%
  11523     0      382,4111   357      759,0000       Cuts: 8   296878   37,55%
  11523     0      382,5678   357      759,0000       Cuts: 5   296911   37,55%
  11523     0      382,7144   357      759,0000       Cuts: 5   296940   37,55%
  11523     0      384,0635   357      759,0000      Cuts: 10   297039   37,55%
  11523     0      385,1601   357      759,0000       Cuts: 8   297102   37,55%
* 11523+    0                          758,0000      474,0263            37,46%
  11523     2      385,1601   356      758,0000      474,0263   297102   37,46%
  13516  1343      456,8483   314      758,0000      474,0263   333815   37,46%
  14627  2181      658,9975   199      758,0000      474,0263   401360   37,46%
* 14750  2275      integral     0      753,0000      474,0263   406535   37,05%
* 16055+ 3044                          746,0000      561,6806            24,71%
  19325  4917      690,3703   173      746,0000      595,6093   637327   20,16%
Elapsed time = 5,03 sec. (4159,74 ticks, tree = 2,41 MB, solutions = 7)
  25895  8896      684,7647   191      746,0000      635,9580   926902   14,75%
  32873 12304      706,6863   166      746,0000      654,9598  1218741   12,20%
  40655 15642        cutoff            746,0000      668,4806  1549013   10,39%
  48429 17714        cutoff            746,0000      679,9286  1856870    8,86%
* 55183+18674                          740,0000      688,0917             7,01%
  56293 17528      727,7879   187      740,0000      689,2065  2206743    6,86%
  63285 16648        cutoff            740,0000      699,0585  2481377    5,53%
* 68960 14914      integral     0      739,0000      707,6793  2706053    4,24%
  71024 13458        cutoff            739,0000      710,8636  2793309    3,81%
  82641  4470        cutoff            739,0000      728,6639  3116567    1,40%

Clique cuts applied:  3
Cover cuts applied:  887
Flow cuts applied:  19
Mixed integer rounding cuts applied:  101
Zero-half cuts applied:  13
Lift and project cuts applied:  3
Gomory fractional cuts applied:  47

Root node processing (before b&c):
  Real time             =    0,28 sec. (152,28 ticks)
Parallel b&c, 16 threads:
  Real time             =   14,60 sec. (11859,68 ticks)
  Sync time (average)   =    3,30 sec.
  Wait time (average)   =    0,02 sec.
                          ------------
Total (root+branch&cut) =   14,87 sec. (12011,96 ticks)
